127
10000000
2122051
1145001
302926
1919843
1152930
1387587
1458009
2369283
225940
2322828
123304
754737
2202242
2274097
1525931
367032
2265483
385042
752058
1589404
527974
1931600
2425791
1171549
1628806
304160
1108110
959789
325781
375007
1499760
730683
2226759
200193
1024288
1918
540089
205405
759315
831700
2072180
1190288
598170
734903
159080
1886056
1640008
31399
2139756
970168
528604
714518
206024
1920795
210146
598101
1639475
1791696
173239
320570
1584692
308042
456942
242295
2367181
524527
1170107
291221
2257012
2250506
1597551
417386
1813942
1800984
535086
255985
2229560
1405801
2288112
588077
55429
2284064
1385274
1738138
1195422
1321856
1284100
1206353
1318839
2496450
1643044
1376349
757974
499418
2044283
1289228
663071
2352176
220548
2338261
1696759
2270577
1570995
1086510
519920
2310889
2292633
1563387
2007975
1299706
340062
161395
315239
873043
2051799
568524
940212
2124122
1727318
48849
982732
1436835
270683
1501850
2130440
998736
103943
